% ============================================================
%  ORSP Instance 1 – Small (6 surgeries, 2 rooms, 2 days)
% ============================================================

n_surgeries  = 6;
n_rooms      = 2;
n_days       = 2;
horizon      = 480;
n_surgeons   = 3;
n_room_types = 1;
soft_cap     = 420;

duration    = [90, 120, 60, 150, 90, 75];
cleaning    = [15,  20, 10,  25, 15, 10];
surgeon     = [ 1,   2,  1,   3,  2,  3];
release_day = [ 1,   1,  1,   1,  2,  2];
deadline    = [ 2,   2,  1,   2,  2,  2];

surgery_room_type = [0, 0, 0, 0, 0, 0];
room_type         = [1, 1];
