% ============================================================
%  ORSP Instance 2 – Medium (12 surgeries, 3 rooms, 3 days)
% ============================================================

n_surgeries  = 12;
n_rooms      = 3;
n_days       = 3;
horizon      = 480;
n_surgeons   = 4;
n_room_types = 2;
soft_cap     = 420;

duration    = [90, 120, 60, 150, 90, 75, 100, 130, 80, 110, 95, 70];
cleaning    = [15,  20, 10,  25, 15, 10,  20,  25, 15,  20, 15, 10];
surgeon     = [ 1,   2,  1,   3,  2,  3,   4,   1,  2,   3,  4,  1];
release_day = [ 1,   1,  1,   1,  1,  1,   2,   2,  2,   2,  3,  3];
deadline    = [ 2,   3,  1,   3,  2,  3,   3,   3,  3,   3,  3,  3];

surgery_room_type = [1, 2, 1, 2, 1, 1, 2, 1, 2, 1, 2, 1];
room_type         = [1, 2, 1];
